/*********************************************
 * OPL 12.8.0.0 Data
 * Author: claud
 * Creation Date: 30-11-2018 at 1:26:28
 *********************************************/
Costo = [ 
  		   [14, 16, 10, 8, 14, 10, 16]
 		   [12, 11, 12, 14, 14, 12, 14]
 		   [13, 8, 9, 11, 13, 15, 12]
 		   [10, 15, 14, 12, 16, 15, 13]
 		   [8, 12, 10, 11, 12, 13, 14]
 		   [11, 10, 8, 6, 11, 8, 9]
 		   [13, 18, 9, 9, 13, 11, 15]
 		   [15, 12, 11, 14, 12, 16, 10]
 		   [10, 11, 18, 17, 9, 14, 9]
 		   [9, 16, 13, 12, 10, 8, 8]
 		 ];
 
 CostoxOP = [8, 10, 9, 11, 9, 10, 12];
 
 CostoFijo = [1000, 800, 700, 900, 1200, 950, 1150]
 
 MxArea = [
 			[500]
 			[700]
 			[1500]
 			[1000]
 			[1800]
 			[1200]
 			[1500]
 			[1000]
 			[900]
 			[1600]
 		   ];